
data;

param n := 10;

param : E  : c :=
	1 2   8.851
	1 4   8.185
	1 7   7.024
	1 9   8.816
	2 4   1.721
	2 5   8.543
	2 7   8.996
	2 9   5.132
	2 10   9.828
	3 4   7.997
	3 5   1.638
	3 6   1.492
	3 7   4.351
	3 9   7.059
	3 10   2.069
	4 5   2.448
	4 7   1.203
	4 8   7.510
	5 6   1.797
	5 7   6.568
	5 8   6.436
	6 8   3.693
	6 10   4.005
	8 9   7.703
	9 10   9.092
;
